c DIMACS File generated by BumbleBEE
p cnf 182 1953
1 0
2 -3 0
-2 3 79 0
2 -79 0
-3 -79 0
3 -4 0
-3 4 80 0
3 -80 0
-4 -80 0
4 -5 0
-4 5 81 0
4 -81 0
-5 -81 0
5 -6 0
-5 6 82 0
5 -82 0
-6 -82 0
6 -7 0
-6 7 83 0
6 -83 0
-7 -83 0
7 -8 0
-7 8 84 0
7 -84 0
-8 -84 0
9 -10 0
-9 10 85 0
9 -85 0
-10 -85 0
10 -11 0
-10 11 86 0
10 -86 0
-11 -86 0
11 -12 0
-11 12 87 0
11 -87 0
-12 -87 0
12 -13 0
-12 13 88 0
12 -88 0
-13 -88 0
13 -14 0
-13 14 89 0
13 -89 0
-14 -89 0
14 -15 0
-14 15 90 0
14 -90 0
-15 -90 0
16 -17 0
-16 17 91 0
16 -91 0
-17 -91 0
17 -18 0
-17 18 92 0
17 -92 0
-18 -92 0
18 -19 0
-18 19 93 0
18 -93 0
-19 -93 0
19 -20 0
-19 20 94 0
19 -94 0
-20 -94 0
20 -21 0
-20 21 95 0
20 -95 0
-21 -95 0
21 -22 0
-21 22 96 0
21 -96 0
-22 -96 0
23 -24 0
-23 24 97 0
23 -97 0
-24 -97 0
24 -25 0
-24 25 98 0
24 -98 0
-25 -98 0
25 -26 0
-25 26 99 0
25 -99 0
-26 -99 0
26 -27 0
-26 27 100 0
26 -100 0
-27 -100 0
27 -28 0
-27 28 101 0
27 -101 0
-28 -101 0
28 -29 0
-28 29 102 0
28 -102 0
-29 -102 0
30 -31 0
-30 31 103 0
30 -103 0
-31 -103 0
31 -32 0
-31 32 104 0
31 -104 0
-32 -104 0
32 -33 0
-32 33 105 0
32 -105 0
-33 -105 0
33 -34 0
-33 34 106 0
33 -106 0
-34 -106 0
34 -35 0
-34 35 107 0
34 -107 0
-35 -107 0
35 -36 0
-35 36 108 0
35 -108 0
-36 -108 0
37 -38 0
-37 38 109 0
37 -109 0
-38 -109 0
38 -39 0
-38 39 110 0
38 -110 0
-39 -110 0
39 -40 0
-39 40 111 0
39 -111 0
-40 -111 0
40 -41 0
-40 41 112 0
40 -112 0
-41 -112 0
41 -42 0
-41 42 113 0
41 -113 0
-42 -113 0
42 -43 0
-42 43 114 0
42 -114 0
-43 -114 0
44 -45 0
-44 45 115 0
44 -115 0
-45 -115 0
45 -46 0
-45 46 116 0
45 -116 0
-46 -116 0
46 -47 0
-46 47 117 0
46 -117 0
-47 -117 0
47 -48 0
-47 48 118 0
47 -118 0
-48 -118 0
48 -49 0
-48 49 119 0
48 -119 0
-49 -119 0
49 -50 0
-49 50 120 0
49 -120 0
-50 -120 0
51 -52 0
-51 52 121 0
51 -121 0
-52 -121 0
52 -53 0
-52 53 122 0
52 -122 0
-53 -122 0
53 -54 0
-53 54 123 0
53 -123 0
-54 -123 0
54 -55 0
-54 55 124 0
54 -124 0
-55 -124 0
55 -56 0
-55 56 125 0
55 -125 0
-56 -125 0
56 -57 0
-56 57 126 0
56 -126 0
-57 -126 0
2 9 0
2 16 0
2 23 0
2 30 0
2 37 0
2 44 0
2 51 0
9 16 0
9 23 0
9 30 0
9 37 0
9 44 0
9 51 0
16 23 0
16 30 0
16 37 0
16 44 0
16 51 0
23 30 0
23 37 0
23 44 0
23 51 0
30 37 0
30 44 0
30 51 0
37 44 0
37 51 0
44 51 0
-2 -9 -16 -23 -30 -37 -44 -51 0
-79 -85 0
-79 -91 0
-79 -97 0
-79 -103 0
-79 -109 0
-79 -115 0
-79 -121 0
-85 -91 0
-85 -97 0
-85 -103 0
-85 -109 0
-85 -115 0
-85 -121 0
-91 -97 0
-91 -103 0
-91 -109 0
-91 -115 0
-91 -121 0
-97 -103 0
-97 -109 0
-97 -115 0
-97 -121 0
-103 -109 0
-103 -115 0
-103 -121 0
-109 -115 0
-109 -121 0
-115 -121 0
79 85 91 97 103 109 115 121 0
-80 -86 0
-80 -92 0
-80 -98 0
-80 -104 0
-80 -110 0
-80 -116 0
-80 -122 0
-86 -92 0
-86 -98 0
-86 -104 0
-86 -110 0
-86 -116 0
-86 -122 0
-92 -98 0
-92 -104 0
-92 -110 0
-92 -116 0
-92 -122 0
-98 -104 0
-98 -110 0
-98 -116 0
-98 -122 0
-104 -110 0
-104 -116 0
-104 -122 0
-110 -116 0
-110 -122 0
-116 -122 0
80 86 92 98 104 110 116 122 0
-81 -87 0
-81 -93 0
-81 -99 0
-81 -105 0
-81 -111 0
-81 -117 0
-81 -123 0
-87 -93 0
-87 -99 0
-87 -105 0
-87 -111 0
-87 -117 0
-87 -123 0
-93 -99 0
-93 -105 0
-93 -111 0
-93 -117 0
-93 -123 0
-99 -105 0
-99 -111 0
-99 -117 0
-99 -123 0
-105 -111 0
-105 -117 0
-105 -123 0
-111 -117 0
-111 -123 0
-117 -123 0
81 87 93 99 105 111 117 123 0
-82 -88 0
-82 -94 0
-82 -100 0
-82 -106 0
-82 -112 0
-82 -118 0
-82 -124 0
-88 -94 0
-88 -100 0
-88 -106 0
-88 -112 0
-88 -118 0
-88 -124 0
-94 -100 0
-94 -106 0
-94 -112 0
-94 -118 0
-94 -124 0
-100 -106 0
-100 -112 0
-100 -118 0
-100 -124 0
-106 -112 0
-106 -118 0
-106 -124 0
-112 -118 0
-112 -124 0
-118 -124 0
82 88 94 100 106 112 118 124 0
-83 -89 0
-83 -95 0
-83 -101 0
-83 -107 0
-83 -113 0
-83 -119 0
-83 -125 0
-89 -95 0
-89 -101 0
-89 -107 0
-89 -113 0
-89 -119 0
-89 -125 0
-95 -101 0
-95 -107 0
-95 -113 0
-95 -119 0
-95 -125 0
-101 -107 0
-101 -113 0
-101 -119 0
-101 -125 0
-107 -113 0
-107 -119 0
-107 -125 0
-113 -119 0
-113 -125 0
-119 -125 0
83 89 95 101 107 113 119 125 0
-84 -90 0
-84 -96 0
-84 -102 0
-84 -108 0
-84 -114 0
-84 -120 0
-84 -126 0
-90 -96 0
-90 -102 0
-90 -108 0
-90 -114 0
-90 -120 0
-90 -126 0
-96 -102 0
-96 -108 0
-96 -114 0
-96 -120 0
-96 -126 0
-102 -108 0
-102 -114 0
-102 -120 0
-102 -126 0
-108 -114 0
-108 -120 0
-108 -126 0
-114 -120 0
-114 -126 0
-120 -126 0
84 90 96 102 108 114 120 126 0
-8 -15 0
-8 -22 0
-8 -29 0
-8 -36 0
-8 -43 0
-8 -50 0
-8 -57 0
-15 -22 0
-15 -29 0
-15 -36 0
-15 -43 0
-15 -50 0
-15 -57 0
-22 -29 0
-22 -36 0
-22 -43 0
-22 -50 0
-22 -57 0
-29 -36 0
-29 -43 0
-29 -50 0
-29 -57 0
-36 -43 0
-36 -50 0
-36 -57 0
-43 -50 0
-43 -57 0
-50 -57 0
8 15 22 29 36 43 50 57 0
-78 77 0
-77 76 0
-76 75 0
-75 74 0
-74 73 0
-73 72 0
-72 71 0
-71 70 0
-70 69 0
-69 68 0
-68 67 0
-67 66 0
-66 65 0
-65 64 0
-64 63 0
-63 62 0
-62 61 0
-61 60 0
-60 59 0
-59 58 0
-16 127 0
-17 128 0
-18 129 0
-19 130 0
-20 131 0
-21 132 0
-22 133 0
-134 16 0
-135 17 0
-136 18 0
-137 19 0
-138 20 0
-139 21 0
-140 22 0
-23 127 0
-24 128 0
-25 129 0
-26 130 0
-27 131 0
-28 132 0
-29 133 0
-134 23 0
-135 24 0
-136 25 0
-137 26 0
-138 27 0
-139 28 0
-140 29 0
-23 -16 128 0
23 16 -127 0
-23 -17 129 0
23 17 -128 0
-23 -18 130 0
23 18 -129 0
-23 -19 131 0
23 19 -130 0
-23 -20 132 0
23 20 -131 0
-23 -21 133 0
23 21 -132 0
-23 -22 134 0
23 22 -133 0
-24 -16 129 0
24 16 -128 0
-24 -17 130 0
24 17 -129 0
-24 -18 131 0
24 18 -130 0
-24 -19 132 0
24 19 -131 0
-24 -20 133 0
24 20 -132 0
-24 -21 134 0
24 21 -133 0
-24 -22 135 0
24 22 -134 0
-25 -16 130 0
25 16 -129 0
-25 -17 131 0
25 17 -130 0
-25 -18 132 0
25 18 -131 0
-25 -19 133 0
25 19 -132 0
-25 -20 134 0
25 20 -133 0
-25 -21 135 0
25 21 -134 0
-25 -22 136 0
25 22 -135 0
-26 -16 131 0
26 16 -130 0
-26 -17 132 0
26 17 -131 0
-26 -18 133 0
26 18 -132 0
-26 -19 134 0
26 19 -133 0
-26 -20 135 0
26 20 -134 0
-26 -21 136 0
26 21 -135 0
-26 -22 137 0
26 22 -136 0
-27 -16 132 0
27 16 -131 0
-27 -17 133 0
27 17 -132 0
-27 -18 134 0
27 18 -133 0
-27 -19 135 0
27 19 -134 0
-27 -20 136 0
27 20 -135 0
-27 -21 137 0
27 21 -136 0
-27 -22 138 0
27 22 -137 0
-28 -16 133 0
28 16 -132 0
-28 -17 134 0
28 17 -133 0
-28 -18 135 0
28 18 -134 0
-28 -19 136 0
28 19 -135 0
-28 -20 137 0
28 20 -136 0
-28 -21 138 0
28 21 -137 0
-28 -22 139 0
28 22 -138 0
-29 -16 134 0
29 16 -133 0
-29 -17 135 0
29 17 -134 0
-29 -18 136 0
29 18 -135 0
-29 -19 137 0
29 19 -136 0
-29 -20 138 0
29 20 -137 0
-29 -21 139 0
29 21 -138 0
-29 -22 140 0
29 22 -139 0
140 -78 0
139 -77 0
138 -76 0
137 -75 0
136 -74 0
135 -73 0
134 -72 0
133 -71 0
132 -70 0
131 -69 0
130 -68 0
129 -67 0
128 -66 0
127 -65 0
71 -140 0
70 -139 0
69 -138 0
68 -137 0
67 -136 0
66 -135 0
65 -134 0
64 -133 0
63 -132 0
62 -131 0
61 -130 0
60 -129 0
59 -128 0
58 -127 0
43 -78 0
42 -77 0
41 -76 0
40 -75 0
39 -74 0
38 -73 0
37 -72 0
64 -43 0
63 -42 0
62 -41 0
61 -40 0
60 -39 0
59 -38 0
58 -37 0
43 140 -77 0
-43 -140 78 0
43 139 -76 0
-43 -139 77 0
43 138 -75 0
-43 -138 76 0
43 137 -74 0
-43 -137 75 0
43 136 -73 0
-43 -136 74 0
43 135 -72 0
-43 -135 73 0
43 134 -71 0
-43 -134 72 0
43 133 -70 0
-43 -133 71 0
43 132 -69 0
-43 -132 70 0
43 131 -68 0
-43 -131 69 0
43 130 -67 0
-43 -130 68 0
43 129 -66 0
-43 -129 67 0
43 128 -65 0
-43 -128 66 0
43 127 -64 0
-43 -127 65 0
42 140 -76 0
-42 -140 77 0
42 139 -75 0
-42 -139 76 0
42 138 -74 0
-42 -138 75 0
42 137 -73 0
-42 -137 74 0
42 136 -72 0
-42 -136 73 0
42 135 -71 0
-42 -135 72 0
42 134 -70 0
-42 -134 71 0
42 133 -69 0
-42 -133 70 0
42 132 -68 0
-42 -132 69 0
42 131 -67 0
-42 -131 68 0
42 130 -66 0
-42 -130 67 0
42 129 -65 0
-42 -129 66 0
42 128 -64 0
-42 -128 65 0
42 127 -63 0
-42 -127 64 0
41 140 -75 0
-41 -140 76 0
41 139 -74 0
-41 -139 75 0
41 138 -73 0
-41 -138 74 0
41 137 -72 0
-41 -137 73 0
41 136 -71 0
-41 -136 72 0
41 135 -70 0
-41 -135 71 0
41 134 -69 0
-41 -134 70 0
41 133 -68 0
-41 -133 69 0
41 132 -67 0
-41 -132 68 0
41 131 -66 0
-41 -131 67 0
41 130 -65 0
-41 -130 66 0
41 129 -64 0
-41 -129 65 0
41 128 -63 0
-41 -128 64 0
41 127 -62 0
-41 -127 63 0
40 140 -74 0
-40 -140 75 0
40 139 -73 0
-40 -139 74 0
40 138 -72 0
-40 -138 73 0
40 137 -71 0
-40 -137 72 0
40 136 -70 0
-40 -136 71 0
40 135 -69 0
-40 -135 70 0
40 134 -68 0
-40 -134 69 0
40 133 -67 0
-40 -133 68 0
40 132 -66 0
-40 -132 67 0
40 131 -65 0
-40 -131 66 0
40 130 -64 0
-40 -130 65 0
40 129 -63 0
-40 -129 64 0
40 128 -62 0
-40 -128 63 0
40 127 -61 0
-40 -127 62 0
39 140 -73 0
-39 -140 74 0
39 139 -72 0
-39 -139 73 0
39 138 -71 0
-39 -138 72 0
39 137 -70 0
-39 -137 71 0
39 136 -69 0
-39 -136 70 0
39 135 -68 0
-39 -135 69 0
39 134 -67 0
-39 -134 68 0
39 133 -66 0
-39 -133 67 0
39 132 -65 0
-39 -132 66 0
39 131 -64 0
-39 -131 65 0
39 130 -63 0
-39 -130 64 0
39 129 -62 0
-39 -129 63 0
39 128 -61 0
-39 -128 62 0
39 127 -60 0
-39 -127 61 0
38 140 -72 0
-38 -140 73 0
38 139 -71 0
-38 -139 72 0
38 138 -70 0
-38 -138 71 0
38 137 -69 0
-38 -137 70 0
38 136 -68 0
-38 -136 69 0
38 135 -67 0
-38 -135 68 0
38 134 -66 0
-38 -134 67 0
38 133 -65 0
-38 -133 66 0
38 132 -64 0
-38 -132 65 0
38 131 -63 0
-38 -131 64 0
38 130 -62 0
-38 -130 63 0
38 129 -61 0
-38 -129 62 0
38 128 -60 0
-38 -128 61 0
38 127 -59 0
-38 -127 60 0
37 140 -71 0
-37 -140 72 0
37 139 -70 0
-37 -139 71 0
37 138 -69 0
-37 -138 70 0
37 137 -68 0
-37 -137 69 0
37 136 -67 0
-37 -136 68 0
37 135 -66 0
-37 -135 67 0
37 134 -65 0
-37 -134 66 0
37 133 -64 0
-37 -133 65 0
37 132 -63 0
-37 -132 64 0
37 131 -62 0
-37 -131 63 0
37 130 -61 0
-37 -130 62 0
37 129 -60 0
-37 -129 61 0
37 128 -59 0
-37 -128 60 0
37 127 -58 0
-37 -127 59 0
127 -128 0
128 -129 0
129 -130 0
130 -131 0
131 -132 0
132 -133 0
133 -134 0
134 -135 0
135 -136 0
136 -137 0
137 -138 0
138 -139 0
139 -140 0
-2 141 0
-3 142 0
-4 143 0
-5 144 0
-6 145 0
-7 146 0
-8 147 0
-148 2 0
-149 3 0
-150 4 0
-151 5 0
-152 6 0
-153 7 0
-154 8 0
-16 141 0
-17 142 0
-18 143 0
-19 144 0
-20 145 0
-21 146 0
-22 147 0
-148 16 0
-149 17 0
-150 18 0
-151 19 0
-152 20 0
-153 21 0
-154 22 0
-16 -2 142 0
16 2 -141 0
-16 -3 143 0
16 3 -142 0
-16 -4 144 0
16 4 -143 0
-16 -5 145 0
16 5 -144 0
-16 -6 146 0
16 6 -145 0
-16 -7 147 0
16 7 -146 0
-16 -8 148 0
16 8 -147 0
-17 -2 143 0
17 2 -142 0
-17 -3 144 0
17 3 -143 0
-17 -4 145 0
17 4 -144 0
-17 -5 146 0
17 5 -145 0
-17 -6 147 0
17 6 -146 0
-17 -7 148 0
17 7 -147 0
-17 -8 149 0
17 8 -148 0
-18 -2 144 0
18 2 -143 0
-18 -3 145 0
18 3 -144 0
-18 -4 146 0
18 4 -145 0
-18 -5 147 0
18 5 -146 0
-18 -6 148 0
18 6 -147 0
-18 -7 149 0
18 7 -148 0
-18 -8 150 0
18 8 -149 0
-19 -2 145 0
19 2 -144 0
-19 -3 146 0
19 3 -145 0
-19 -4 147 0
19 4 -146 0
-19 -5 148 0
19 5 -147 0
-19 -6 149 0
19 6 -148 0
-19 -7 150 0
19 7 -149 0
-19 -8 151 0
19 8 -150 0
-20 -2 146 0
20 2 -145 0
-20 -3 147 0
20 3 -146 0
-20 -4 148 0
20 4 -147 0
-20 -5 149 0
20 5 -148 0
-20 -6 150 0
20 6 -149 0
-20 -7 151 0
20 7 -150 0
-20 -8 152 0
20 8 -151 0
-21 -2 147 0
21 2 -146 0
-21 -3 148 0
21 3 -147 0
-21 -4 149 0
21 4 -148 0
-21 -5 150 0
21 5 -149 0
-21 -6 151 0
21 6 -150 0
-21 -7 152 0
21 7 -151 0
-21 -8 153 0
21 8 -152 0
-22 -2 148 0
22 2 -147 0
-22 -3 149 0
22 3 -148 0
-22 -4 150 0
22 4 -149 0
-22 -5 151 0
22 5 -150 0
-22 -6 152 0
22 6 -151 0
-22 -7 153 0
22 7 -152 0
-22 -8 154 0
22 8 -153 0
154 -78 0
153 -77 0
152 -76 0
151 -75 0
150 -74 0
149 -73 0
148 -72 0
147 -71 0
146 -70 0
145 -69 0
144 -68 0
143 -67 0
142 -66 0
141 -65 0
71 -154 0
70 -153 0
69 -152 0
68 -151 0
67 -150 0
66 -149 0
65 -148 0
64 -147 0
63 -146 0
62 -145 0
61 -144 0
60 -143 0
59 -142 0
58 -141 0
57 -78 0
56 -77 0
55 -76 0
54 -75 0
53 -74 0
52 -73 0
51 -72 0
64 -57 0
63 -56 0
62 -55 0
61 -54 0
60 -53 0
59 -52 0
58 -51 0
57 154 -77 0
-57 -154 78 0
57 153 -76 0
-57 -153 77 0
57 152 -75 0
-57 -152 76 0
57 151 -74 0
-57 -151 75 0
57 150 -73 0
-57 -150 74 0
57 149 -72 0
-57 -149 73 0
57 148 -71 0
-57 -148 72 0
57 147 -70 0
-57 -147 71 0
57 146 -69 0
-57 -146 70 0
57 145 -68 0
-57 -145 69 0
57 144 -67 0
-57 -144 68 0
57 143 -66 0
-57 -143 67 0
57 142 -65 0
-57 -142 66 0
57 141 -64 0
-57 -141 65 0
56 154 -76 0
-56 -154 77 0
56 153 -75 0
-56 -153 76 0
56 152 -74 0
-56 -152 75 0
56 151 -73 0
-56 -151 74 0
56 150 -72 0
-56 -150 73 0
56 149 -71 0
-56 -149 72 0
56 148 -70 0
-56 -148 71 0
56 147 -69 0
-56 -147 70 0
56 146 -68 0
-56 -146 69 0
56 145 -67 0
-56 -145 68 0
56 144 -66 0
-56 -144 67 0
56 143 -65 0
-56 -143 66 0
56 142 -64 0
-56 -142 65 0
56 141 -63 0
-56 -141 64 0
55 154 -75 0
-55 -154 76 0
55 153 -74 0
-55 -153 75 0
55 152 -73 0
-55 -152 74 0
55 151 -72 0
-55 -151 73 0
55 150 -71 0
-55 -150 72 0
55 149 -70 0
-55 -149 71 0
55 148 -69 0
-55 -148 70 0
55 147 -68 0
-55 -147 69 0
55 146 -67 0
-55 -146 68 0
55 145 -66 0
-55 -145 67 0
55 144 -65 0
-55 -144 66 0
55 143 -64 0
-55 -143 65 0
55 142 -63 0
-55 -142 64 0
55 141 -62 0
-55 -141 63 0
54 154 -74 0
-54 -154 75 0
54 153 -73 0
-54 -153 74 0
54 152 -72 0
-54 -152 73 0
54 151 -71 0
-54 -151 72 0
54 150 -70 0
-54 -150 71 0
54 149 -69 0
-54 -149 70 0
54 148 -68 0
-54 -148 69 0
54 147 -67 0
-54 -147 68 0
54 146 -66 0
-54 -146 67 0
54 145 -65 0
-54 -145 66 0
54 144 -64 0
-54 -144 65 0
54 143 -63 0
-54 -143 64 0
54 142 -62 0
-54 -142 63 0
54 141 -61 0
-54 -141 62 0
53 154 -73 0
-53 -154 74 0
53 153 -72 0
-53 -153 73 0
53 152 -71 0
-53 -152 72 0
53 151 -70 0
-53 -151 71 0
53 150 -69 0
-53 -150 70 0
53 149 -68 0
-53 -149 69 0
53 148 -67 0
-53 -148 68 0
53 147 -66 0
-53 -147 67 0
53 146 -65 0
-53 -146 66 0
53 145 -64 0
-53 -145 65 0
53 144 -63 0
-53 -144 64 0
53 143 -62 0
-53 -143 63 0
53 142 -61 0
-53 -142 62 0
53 141 -60 0
-53 -141 61 0
52 154 -72 0
-52 -154 73 0
52 153 -71 0
-52 -153 72 0
52 152 -70 0
-52 -152 71 0
52 151 -69 0
-52 -151 70 0
52 150 -68 0
-52 -150 69 0
52 149 -67 0
-52 -149 68 0
52 148 -66 0
-52 -148 67 0
52 147 -65 0
-52 -147 66 0
52 146 -64 0
-52 -146 65 0
52 145 -63 0
-52 -145 64 0
52 144 -62 0
-52 -144 63 0
52 143 -61 0
-52 -143 62 0
52 142 -60 0
-52 -142 61 0
52 141 -59 0
-52 -141 60 0
51 154 -71 0
-51 -154 72 0
51 153 -70 0
-51 -153 71 0
51 152 -69 0
-51 -152 70 0
51 151 -68 0
-51 -151 69 0
51 150 -67 0
-51 -150 68 0
51 149 -66 0
-51 -149 67 0
51 148 -65 0
-51 -148 66 0
51 147 -64 0
-51 -147 65 0
51 146 -63 0
-51 -146 64 0
51 145 -62 0
-51 -145 63 0
51 144 -61 0
-51 -144 62 0
51 143 -60 0
-51 -143 61 0
51 142 -59 0
-51 -142 60 0
51 141 -58 0
-51 -141 59 0
141 -142 0
142 -143 0
143 -144 0
144 -145 0
145 -146 0
146 -147 0
147 -148 0
148 -149 0
149 -150 0
150 -151 0
151 -152 0
152 -153 0
153 -154 0
-9 155 0
-10 156 0
-11 157 0
-12 158 0
-13 159 0
-14 160 0
-15 161 0
-162 9 0
-163 10 0
-164 11 0
-165 12 0
-166 13 0
-167 14 0
-168 15 0
-30 155 0
-31 156 0
-32 157 0
-33 158 0
-34 159 0
-35 160 0
-36 161 0
-162 30 0
-163 31 0
-164 32 0
-165 33 0
-166 34 0
-167 35 0
-168 36 0
-30 -9 156 0
30 9 -155 0
-30 -10 157 0
30 10 -156 0
-30 -11 158 0
30 11 -157 0
-30 -12 159 0
30 12 -158 0
-30 -13 160 0
30 13 -159 0
-30 -14 161 0
30 14 -160 0
-30 -15 162 0
30 15 -161 0
-31 -9 157 0
31 9 -156 0
-31 -10 158 0
31 10 -157 0
-31 -11 159 0
31 11 -158 0
-31 -12 160 0
31 12 -159 0
-31 -13 161 0
31 13 -160 0
-31 -14 162 0
31 14 -161 0
-31 -15 163 0
31 15 -162 0
-32 -9 158 0
32 9 -157 0
-32 -10 159 0
32 10 -158 0
-32 -11 160 0
32 11 -159 0
-32 -12 161 0
32 12 -160 0
-32 -13 162 0
32 13 -161 0
-32 -14 163 0
32 14 -162 0
-32 -15 164 0
32 15 -163 0
-33 -9 159 0
33 9 -158 0
-33 -10 160 0
33 10 -159 0
-33 -11 161 0
33 11 -160 0
-33 -12 162 0
33 12 -161 0
-33 -13 163 0
33 13 -162 0
-33 -14 164 0
33 14 -163 0
-33 -15 165 0
33 15 -164 0
-34 -9 160 0
34 9 -159 0
-34 -10 161 0
34 10 -160 0
-34 -11 162 0
34 11 -161 0
-34 -12 163 0
34 12 -162 0
-34 -13 164 0
34 13 -163 0
-34 -14 165 0
34 14 -164 0
-34 -15 166 0
34 15 -165 0
-35 -9 161 0
35 9 -160 0
-35 -10 162 0
35 10 -161 0
-35 -11 163 0
35 11 -162 0
-35 -12 164 0
35 12 -163 0
-35 -13 165 0
35 13 -164 0
-35 -14 166 0
35 14 -165 0
-35 -15 167 0
35 15 -166 0
-36 -9 162 0
36 9 -161 0
-36 -10 163 0
36 10 -162 0
-36 -11 164 0
36 11 -163 0
-36 -12 165 0
36 12 -164 0
-36 -13 166 0
36 13 -165 0
-36 -14 167 0
36 14 -166 0
-36 -15 168 0
36 15 -167 0
168 -78 0
167 -77 0
166 -76 0
165 -75 0
164 -74 0
163 -73 0
162 -72 0
161 -71 0
160 -70 0
159 -69 0
158 -68 0
157 -67 0
156 -66 0
155 -65 0
71 -168 0
70 -167 0
69 -166 0
68 -165 0
67 -164 0
66 -163 0
65 -162 0
64 -161 0
63 -160 0
62 -159 0
61 -158 0
60 -157 0
59 -156 0
58 -155 0
57 -78 0
56 -77 0
55 -76 0
54 -75 0
53 -74 0
52 -73 0
51 -72 0
64 -57 0
63 -56 0
62 -55 0
61 -54 0
60 -53 0
59 -52 0
58 -51 0
57 168 -77 0
-57 -168 78 0
57 167 -76 0
-57 -167 77 0
57 166 -75 0
-57 -166 76 0
57 165 -74 0
-57 -165 75 0
57 164 -73 0
-57 -164 74 0
57 163 -72 0
-57 -163 73 0
57 162 -71 0
-57 -162 72 0
57 161 -70 0
-57 -161 71 0
57 160 -69 0
-57 -160 70 0
57 159 -68 0
-57 -159 69 0
57 158 -67 0
-57 -158 68 0
57 157 -66 0
-57 -157 67 0
57 156 -65 0
-57 -156 66 0
57 155 -64 0
-57 -155 65 0
56 168 -76 0
-56 -168 77 0
56 167 -75 0
-56 -167 76 0
56 166 -74 0
-56 -166 75 0
56 165 -73 0
-56 -165 74 0
56 164 -72 0
-56 -164 73 0
56 163 -71 0
-56 -163 72 0
56 162 -70 0
-56 -162 71 0
56 161 -69 0
-56 -161 70 0
56 160 -68 0
-56 -160 69 0
56 159 -67 0
-56 -159 68 0
56 158 -66 0
-56 -158 67 0
56 157 -65 0
-56 -157 66 0
56 156 -64 0
-56 -156 65 0
56 155 -63 0
-56 -155 64 0
55 168 -75 0
-55 -168 76 0
55 167 -74 0
-55 -167 75 0
55 166 -73 0
-55 -166 74 0
55 165 -72 0
-55 -165 73 0
55 164 -71 0
-55 -164 72 0
55 163 -70 0
-55 -163 71 0
55 162 -69 0
-55 -162 70 0
55 161 -68 0
-55 -161 69 0
55 160 -67 0
-55 -160 68 0
55 159 -66 0
-55 -159 67 0
55 158 -65 0
-55 -158 66 0
55 157 -64 0
-55 -157 65 0
55 156 -63 0
-55 -156 64 0
55 155 -62 0
-55 -155 63 0
54 168 -74 0
-54 -168 75 0
54 167 -73 0
-54 -167 74 0
54 166 -72 0
-54 -166 73 0
54 165 -71 0
-54 -165 72 0
54 164 -70 0
-54 -164 71 0
54 163 -69 0
-54 -163 70 0
54 162 -68 0
-54 -162 69 0
54 161 -67 0
-54 -161 68 0
54 160 -66 0
-54 -160 67 0
54 159 -65 0
-54 -159 66 0
54 158 -64 0
-54 -158 65 0
54 157 -63 0
-54 -157 64 0
54 156 -62 0
-54 -156 63 0
54 155 -61 0
-54 -155 62 0
53 168 -73 0
-53 -168 74 0
53 167 -72 0
-53 -167 73 0
53 166 -71 0
-53 -166 72 0
53 165 -70 0
-53 -165 71 0
53 164 -69 0
-53 -164 70 0
53 163 -68 0
-53 -163 69 0
53 162 -67 0
-53 -162 68 0
53 161 -66 0
-53 -161 67 0
53 160 -65 0
-53 -160 66 0
53 159 -64 0
-53 -159 65 0
53 158 -63 0
-53 -158 64 0
53 157 -62 0
-53 -157 63 0
53 156 -61 0
-53 -156 62 0
53 155 -60 0
-53 -155 61 0
52 168 -72 0
-52 -168 73 0
52 167 -71 0
-52 -167 72 0
52 166 -70 0
-52 -166 71 0
52 165 -69 0
-52 -165 70 0
52 164 -68 0
-52 -164 69 0
52 163 -67 0
-52 -163 68 0
52 162 -66 0
-52 -162 67 0
52 161 -65 0
-52 -161 66 0
52 160 -64 0
-52 -160 65 0
52 159 -63 0
-52 -159 64 0
52 158 -62 0
-52 -158 63 0
52 157 -61 0
-52 -157 62 0
52 156 -60 0
-52 -156 61 0
52 155 -59 0
-52 -155 60 0
51 168 -71 0
-51 -168 72 0
51 167 -70 0
-51 -167 71 0
51 166 -69 0
-51 -166 70 0
51 165 -68 0
-51 -165 69 0
51 164 -67 0
-51 -164 68 0
51 163 -66 0
-51 -163 67 0
51 162 -65 0
-51 -162 66 0
51 161 -64 0
-51 -161 65 0
51 160 -63 0
-51 -160 64 0
51 159 -62 0
-51 -159 63 0
51 158 -61 0
-51 -158 62 0
51 157 -60 0
-51 -157 61 0
51 156 -59 0
-51 -156 60 0
51 155 -58 0
-51 -155 59 0
155 -156 0
156 -157 0
157 -158 0
158 -159 0
159 -160 0
160 -161 0
161 -162 0
162 -163 0
163 -164 0
164 -165 0
165 -166 0
166 -167 0
167 -168 0
-9 169 0
-10 170 0
-11 171 0
-12 172 0
-13 173 0
-14 174 0
-15 175 0
-176 9 0
-177 10 0
-178 11 0
-179 12 0
-180 13 0
-181 14 0
-182 15 0
-37 169 0
-38 170 0
-39 171 0
-40 172 0
-41 173 0
-42 174 0
-43 175 0
-176 37 0
-177 38 0
-178 39 0
-179 40 0
-180 41 0
-181 42 0
-182 43 0
-37 -9 170 0
37 9 -169 0
-37 -10 171 0
37 10 -170 0
-37 -11 172 0
37 11 -171 0
-37 -12 173 0
37 12 -172 0
-37 -13 174 0
37 13 -173 0
-37 -14 175 0
37 14 -174 0
-37 -15 176 0
37 15 -175 0
-38 -9 171 0
38 9 -170 0
-38 -10 172 0
38 10 -171 0
-38 -11 173 0
38 11 -172 0
-38 -12 174 0
38 12 -173 0
-38 -13 175 0
38 13 -174 0
-38 -14 176 0
38 14 -175 0
-38 -15 177 0
38 15 -176 0
-39 -9 172 0
39 9 -171 0
-39 -10 173 0
39 10 -172 0
-39 -11 174 0
39 11 -173 0
-39 -12 175 0
39 12 -174 0
-39 -13 176 0
39 13 -175 0
-39 -14 177 0
39 14 -176 0
-39 -15 178 0
39 15 -177 0
-40 -9 173 0
40 9 -172 0
-40 -10 174 0
40 10 -173 0
-40 -11 175 0
40 11 -174 0
-40 -12 176 0
40 12 -175 0
-40 -13 177 0
40 13 -176 0
-40 -14 178 0
40 14 -177 0
-40 -15 179 0
40 15 -178 0
-41 -9 174 0
41 9 -173 0
-41 -10 175 0
41 10 -174 0
-41 -11 176 0
41 11 -175 0
-41 -12 177 0
41 12 -176 0
-41 -13 178 0
41 13 -177 0
-41 -14 179 0
41 14 -178 0
-41 -15 180 0
41 15 -179 0
-42 -9 175 0
42 9 -174 0
-42 -10 176 0
42 10 -175 0
-42 -11 177 0
42 11 -176 0
-42 -12 178 0
42 12 -177 0
-42 -13 179 0
42 13 -178 0
-42 -14 180 0
42 14 -179 0
-42 -15 181 0
42 15 -180 0
-43 -9 176 0
43 9 -175 0
-43 -10 177 0
43 10 -176 0
-43 -11 178 0
43 11 -177 0
-43 -12 179 0
43 12 -178 0
-43 -13 180 0
43 13 -179 0
-43 -14 181 0
43 14 -180 0
-43 -15 182 0
43 15 -181 0
182 -78 0
181 -77 0
180 -76 0
179 -75 0
178 -74 0
177 -73 0
176 -72 0
175 -71 0
174 -70 0
173 -69 0
172 -68 0
171 -67 0
170 -66 0
169 -65 0
71 -182 0
70 -181 0
69 -180 0
68 -179 0
67 -178 0
66 -177 0
65 -176 0
64 -175 0
63 -174 0
62 -173 0
61 -172 0
60 -171 0
59 -170 0
58 -169 0
50 -78 0
49 -77 0
48 -76 0
47 -75 0
46 -74 0
45 -73 0
44 -72 0
64 -50 0
63 -49 0
62 -48 0
61 -47 0
60 -46 0
59 -45 0
58 -44 0
50 182 -77 0
-50 -182 78 0
50 181 -76 0
-50 -181 77 0
50 180 -75 0
-50 -180 76 0
50 179 -74 0
-50 -179 75 0
50 178 -73 0
-50 -178 74 0
50 177 -72 0
-50 -177 73 0
50 176 -71 0
-50 -176 72 0
50 175 -70 0
-50 -175 71 0
50 174 -69 0
-50 -174 70 0
50 173 -68 0
-50 -173 69 0
50 172 -67 0
-50 -172 68 0
50 171 -66 0
-50 -171 67 0
50 170 -65 0
-50 -170 66 0
50 169 -64 0
-50 -169 65 0
49 182 -76 0
-49 -182 77 0
49 181 -75 0
-49 -181 76 0
49 180 -74 0
-49 -180 75 0
49 179 -73 0
-49 -179 74 0
49 178 -72 0
-49 -178 73 0
49 177 -71 0
-49 -177 72 0
49 176 -70 0
-49 -176 71 0
49 175 -69 0
-49 -175 70 0
49 174 -68 0
-49 -174 69 0
49 173 -67 0
-49 -173 68 0
49 172 -66 0
-49 -172 67 0
49 171 -65 0
-49 -171 66 0
49 170 -64 0
-49 -170 65 0
49 169 -63 0
-49 -169 64 0
48 182 -75 0
-48 -182 76 0
48 181 -74 0
-48 -181 75 0
48 180 -73 0
-48 -180 74 0
48 179 -72 0
-48 -179 73 0
48 178 -71 0
-48 -178 72 0
48 177 -70 0
-48 -177 71 0
48 176 -69 0
-48 -176 70 0
48 175 -68 0
-48 -175 69 0
48 174 -67 0
-48 -174 68 0
48 173 -66 0
-48 -173 67 0
48 172 -65 0
-48 -172 66 0
48 171 -64 0
-48 -171 65 0
48 170 -63 0
-48 -170 64 0
48 169 -62 0
-48 -169 63 0
47 182 -74 0
-47 -182 75 0
47 181 -73 0
-47 -181 74 0
47 180 -72 0
-47 -180 73 0
47 179 -71 0
-47 -179 72 0
47 178 -70 0
-47 -178 71 0
47 177 -69 0
-47 -177 70 0
47 176 -68 0
-47 -176 69 0
47 175 -67 0
-47 -175 68 0
47 174 -66 0
-47 -174 67 0
47 173 -65 0
-47 -173 66 0
47 172 -64 0
-47 -172 65 0
47 171 -63 0
-47 -171 64 0
47 170 -62 0
-47 -170 63 0
47 169 -61 0
-47 -169 62 0
46 182 -73 0
-46 -182 74 0
46 181 -72 0
-46 -181 73 0
46 180 -71 0
-46 -180 72 0
46 179 -70 0
-46 -179 71 0
46 178 -69 0
-46 -178 70 0
46 177 -68 0
-46 -177 69 0
46 176 -67 0
-46 -176 68 0
46 175 -66 0
-46 -175 67 0
46 174 -65 0
-46 -174 66 0
46 173 -64 0
-46 -173 65 0
46 172 -63 0
-46 -172 64 0
46 171 -62 0
-46 -171 63 0
46 170 -61 0
-46 -170 62 0
46 169 -60 0
-46 -169 61 0
45 182 -72 0
-45 -182 73 0
45 181 -71 0
-45 -181 72 0
45 180 -70 0
-45 -180 71 0
45 179 -69 0
-45 -179 70 0
45 178 -68 0
-45 -178 69 0
45 177 -67 0
-45 -177 68 0
45 176 -66 0
-45 -176 67 0
45 175 -65 0
-45 -175 66 0
45 174 -64 0
-45 -174 65 0
45 173 -63 0
-45 -173 64 0
45 172 -62 0
-45 -172 63 0
45 171 -61 0
-45 -171 62 0
45 170 -60 0
-45 -170 61 0
45 169 -59 0
-45 -169 60 0
44 182 -71 0
-44 -182 72 0
44 181 -70 0
-44 -181 71 0
44 180 -69 0
-44 -180 70 0
44 179 -68 0
-44 -179 69 0
44 178 -67 0
-44 -178 68 0
44 177 -66 0
-44 -177 67 0
44 176 -65 0
-44 -176 66 0
44 175 -64 0
-44 -175 65 0
44 174 -63 0
-44 -174 64 0
44 173 -62 0
-44 -173 63 0
44 172 -61 0
-44 -172 62 0
44 171 -60 0
-44 -171 61 0
44 170 -59 0
-44 -170 60 0
44 169 -58 0
-44 -169 59 0
169 -170 0
170 -171 0
171 -172 0
172 -173 0
173 -174 0
174 -175 0
175 -176 0
176 -177 0
177 -178 0
178 -179 0
179 -180 0
180 -181 0
181 -182 0
